2025-10-11 22:03:42,315 - INFO - 📌 第一个 epoch：默认所有模块使用 checkpoint
2025-10-11 22:03:47,264 - INFO - Epoch 1 completed in 4.961465 seconds
2025-10-11 22:03:48,132 - INFO - torch.cuda.max_memory_reserved() : 1.029296875
2025-10-11 22:03:51,968 - INFO - 
[🔁 拟合反向传播时间模型]
2025-10-11 22:03:51,968 - INFO - 总反向传播时间: 3.817708s
2025-10-11 22:03:51,968 - INFO - 拟合模型: backward_total ≈ 2 × (A + B) + b
2025-10-11 22:03:51,968 - INFO - A = 2.711859, B = 0.246953, b = 0.858896s
2025-10-11 22:03:51,993 - INFO - Set parameter LicenseID to value 2706656
2025-10-11 22:03:52,000 - INFO - Set parameter LogToConsole to value 1
2025-10-11 22:03:52,000 - INFO - Set parameter LogFile to value ""
2025-10-11 22:03:52,000 - INFO - Set parameter Threads to value 12
2025-10-11 22:03:52,000 - INFO - Set parameter TimeLimit to value 3600
2025-10-11 22:03:52,000 - INFO - Set parameter OptimalityTol to value 0.0001
2025-10-11 22:03:52,001 - INFO - Set parameter IntFeasTol to value 1e-05
2025-10-11 22:03:52,001 - INFO - Set parameter StartNodeLimit to value 10000000
2025-10-11 22:03:52,240 - INFO - Set parameter TimeLimit to value 3600
2025-10-11 22:03:52,240 - INFO - 
2025-10-11 22:03:52,240 - INFO - 
2025-10-11 22:03:52,240 - INFO - Restarting solve
2025-10-11 22:03:52,240 - INFO - 
2025-10-11 22:03:52,240 - INFO - 
2025-10-11 22:03:52,242 - INFO - Gurobi Optimizer version 12.0.3 build v12.0.3rc0 (linux64 - "Ubuntu 20.04.6 LTS")
2025-10-11 22:03:52,242 - INFO - 
2025-10-11 22:03:52,242 - INFO - CPU model: Intel(R) Xeon(R) Platinum 8260 CPU @ 2.40GHz, instruction set [SSE2|AVX|AVX2|AVX512]
2025-10-11 22:03:52,242 - INFO - Thread count: 48 physical cores, 96 logical processors, using up to 12 threads
2025-10-11 22:03:52,242 - INFO - 
2025-10-11 22:03:52,242 - INFO - Non-default parameters:
2025-10-11 22:03:52,242 - INFO - TimeLimit  3600
2025-10-11 22:03:52,242 - INFO - OptimalityTol  0.0001
2025-10-11 22:03:52,242 - INFO - StartNodeLimit  10000000
2025-10-11 22:03:52,242 - INFO - Threads  12
2025-10-11 22:03:52,242 - INFO - 
2025-10-11 22:03:52,242 - INFO - Optimize a model with 5603 rows, 3584 columns and 15200 nonzeros
2025-10-11 22:03:52,243 - INFO - Model fingerprint: 0xfffbb0d8
2025-10-11 22:03:52,243 - INFO - Variable types: 1024 continuous, 2560 integer (2560 binary)
2025-10-11 22:03:52,243 - INFO - Coefficient statistics:
2025-10-11 22:03:52,243 - INFO -   Matrix range     [1e+00, 3e+14]
2025-10-11 22:03:52,243 - INFO -   Objective range  [5e+04, 2e+05]
2025-10-11 22:03:52,243 - INFO -   Bounds range     [1e+00, 2e+15]
2025-10-11 22:03:52,243 - INFO -   RHS range        [1e+00, 2e+15]
2025-10-11 22:03:52,243 - INFO - Warning: Model contains large matrix coefficient range
2025-10-11 22:03:52,243 - INFO - Warning: Model contains large rhs
2025-10-11 22:03:52,243 - INFO - Warning: Model contains large bounds
2025-10-11 22:03:52,243 - INFO -          Consider reformulating model or setting NumericFocus parameter
2025-10-11 22:03:52,243 - INFO -          to avoid numerical issues.
2025-10-11 22:03:52,256 - INFO - Presolve removed 4376 rows and 2059 columns
2025-10-11 22:03:52,256 - INFO - Presolve time: 0.01s
2025-10-11 22:03:52,256 - INFO - Presolved: 1227 rows, 1525 columns, 4322 nonzeros
2025-10-11 22:03:52,258 - INFO - Variable types: 0 continuous, 1525 integer (1091 binary)
2025-10-11 22:03:52,268 - INFO - 
2025-10-11 22:03:52,268 - INFO - Root relaxation: objective 4.060394e+06, 437 iterations, 0.00 seconds (0.00 work units)
2025-10-11 22:03:52,274 - INFO - 
2025-10-11 22:03:52,274 - INFO -     Nodes    |    Current Node    |     Objective Bounds      |     Work
2025-10-11 22:03:52,274 - INFO -  Expl Unexpl |  Obj  Depth IntInf | Incumbent    BestBd   Gap | It/Node Time
2025-10-11 22:03:52,274 - INFO - 
2025-10-11 22:03:52,274 - INFO -      0     0 4060393.76    0   26          - 4060393.76      -     -    0s
2025-10-11 22:03:52,276 - INFO - H    0     0                    4064283.0000 4060393.76  0.10%     -    0s
2025-10-11 22:03:52,285 - INFO - 
2025-10-11 22:03:52,285 - INFO - Explored 1 nodes (512 simplex iterations) in 0.04 seconds (0.02 work units)
2025-10-11 22:03:52,285 - INFO - Thread count was 12 (of 96 available processors)
2025-10-11 22:03:52,285 - INFO - 
2025-10-11 22:03:52,285 - INFO - Solution count 1: 4.06428e+06 
2025-10-11 22:03:52,285 - INFO - 
2025-10-11 22:03:52,285 - INFO - Optimal solution found (tolerance 1.00e-04)
2025-10-11 22:03:52,285 - INFO - Best objective 4.064283000000e+06, best bound 4.064283000000e+06, gap 0.0000%
2025-10-11 22:03:52,295 - INFO - 规划前的显存GB：2.0
2025-10-11 22:03:52,295 - INFO - 规划后的显存GB：1.9089164733886719
2025-10-11 22:03:52,295 - INFO - ✅ 最优策略：[1, 1, 1, 1, 1, 1, 1, 1, 1, 1, 1, 1, 0, 1, 1, 1]
2025-10-11 22:03:52,295 - INFO - 📌 checkpoint 的欧氏长度:, []
2025-10-11 22:03:52,295 - INFO - 📌 checkpoint 的余弦长度:, [597]
2025-10-11 22:03:52,295 - INFO - 💾 最终显存峰值：%.2f MB % 1780.8826751708984
2025-10-11 22:03:52,296 - INFO - Epoch 2 completed in 4.162397 seconds
2025-10-11 22:03:52,296 - INFO - torch.cuda.max_memory_reserved() : 1.029296875
2025-10-11 22:03:54,954 - INFO - Epoch 3 completed in 2.657413 seconds
2025-10-11 22:03:54,954 - INFO - 
====================== [第1个 Epoch 收集统计数据] ======================
2025-10-11 22:03:54,954 - INFO - 
🔍 EUCLIDEAN modules:
2025-10-11 22:03:54,954 - INFO - [Shapelet 119] forward_avg=0.002159s over 26 calls | peak=72.20MB | final=0.00MB
2025-10-11 22:03:54,954 - INFO - [Shapelet 238] forward_avg=0.001981s over 26 calls | peak=126.95MB | final=0.00MB
2025-10-11 22:03:54,954 - INFO - [Shapelet 358] forward_avg=0.001872s over 26 calls | peak=169.17MB | final=0.00MB
2025-10-11 22:03:54,954 - INFO - [Shapelet 478] forward_avg=0.001872s over 26 calls | peak=193.41MB | final=0.00MB
2025-10-11 22:03:54,954 - INFO - [Shapelet 597] forward_avg=0.001884s over 26 calls | peak=199.65MB | final=0.00MB
2025-10-11 22:03:54,954 - INFO - [Shapelet 717] forward_avg=0.001876s over 26 calls | peak=193.90MB | final=0.00MB
2025-10-11 22:03:54,954 - INFO - [Shapelet 837] forward_avg=0.001798s over 26 calls | peak=170.03MB | final=0.00MB
2025-10-11 22:03:54,954 - INFO - [Shapelet 957] forward_avg=0.001847s over 26 calls | peak=129.44MB | final=0.00MB
2025-10-11 22:03:54,954 - INFO - 
🔍 COSINE modules:
2025-10-11 22:03:54,954 - INFO - [Shapelet 119] forward_avg=0.002549s over 26 calls | peak=47.22MB | final=0.00MB
2025-10-11 22:03:54,954 - INFO - [Shapelet 238] forward_avg=0.002399s over 26 calls | peak=83.85MB | final=0.00MB
2025-10-11 22:03:54,954 - INFO - [Shapelet 358] forward_avg=0.002434s over 26 calls | peak=112.15MB | final=0.00MB
2025-10-11 22:03:54,954 - INFO - [Shapelet 478] forward_avg=0.002436s over 26 calls | peak=128.13MB | final=0.00MB
2025-10-11 22:03:54,954 - INFO - [Shapelet 597] forward_avg=0.002455s over 26 calls | peak=132.11MB | final=0.00MB
2025-10-11 22:03:54,954 - INFO - [Shapelet 717] forward_avg=0.002393s over 26 calls | peak=128.09MB | final=0.00MB
2025-10-11 22:03:54,954 - INFO - [Shapelet 837] forward_avg=0.002395s over 26 calls | peak=112.07MB | final=0.00MB
2025-10-11 22:03:54,954 - INFO - [Shapelet 957] forward_avg=0.002419s over 26 calls | peak=84.51MB | final=0.00MB
2025-10-11 22:03:54,954 - INFO - 
🔍 CROSS modules:
2025-10-11 22:03:54,955 - INFO - [Shapelet 119] forward_avg=0.000628s over 26 calls
2025-10-11 22:03:54,955 - INFO - [Shapelet 238] forward_avg=0.000554s over 26 calls
2025-10-11 22:03:54,955 - INFO - [Shapelet 358] forward_avg=0.000547s over 26 calls
2025-10-11 22:03:54,955 - INFO - [Shapelet 478] forward_avg=0.000553s over 26 calls
2025-10-11 22:03:54,955 - INFO - [Shapelet 597] forward_avg=0.000569s over 26 calls
2025-10-11 22:03:54,955 - INFO - [Shapelet 717] forward_avg=0.000600s over 26 calls
2025-10-11 22:03:54,955 - INFO - [Shapelet 837] forward_avg=0.000633s over 26 calls
2025-10-11 22:03:54,955 - INFO - [Shapelet 957] forward_avg=0.000665s over 26 calls
2025-10-11 22:03:54,955 - INFO - 
💾 模型第一次反向传播阶段的显存峰值（所有模块中的最大值）: 1313.36 MB
2025-10-11 22:03:54,955 - INFO - 
💾 模型初始显存: 5.08 MB
2025-10-11 22:03:54,955 - INFO - =======================================================================

2025-10-11 22:03:54,955 - INFO - torch.cuda.max_memory_reserved() : 1.875
2025-10-11 22:03:57,593 - INFO - Epoch 4 completed in 2.637767 seconds
2025-10-11 22:03:57,594 - INFO - torch.cuda.max_memory_reserved() : 1.875
2025-10-11 22:04:00,254 - INFO - Epoch 5 completed in 2.659311 seconds
2025-10-11 22:04:00,255 - INFO - torch.cuda.max_memory_reserved() : 1.875
2025-10-11 22:04:02,891 - INFO - Epoch 6 completed in 2.635014 seconds
2025-10-11 22:04:02,891 - INFO - torch.cuda.max_memory_reserved() : 1.875
2025-10-11 22:04:05,534 - INFO - Epoch 7 completed in 2.641836 seconds
2025-10-11 22:04:05,534 - INFO - torch.cuda.max_memory_reserved() : 1.875
2025-10-11 22:04:08,183 - INFO - Epoch 8 completed in 2.648124 seconds
2025-10-11 22:04:08,184 - INFO - torch.cuda.max_memory_reserved() : 1.875
2025-10-11 22:04:10,842 - INFO - Epoch 9 completed in 2.656831 seconds
2025-10-11 22:04:10,842 - INFO - torch.cuda.max_memory_reserved() : 1.875
2025-10-11 22:04:13,459 - INFO - Epoch 10 completed in 2.616256 seconds
2025-10-11 22:04:14,071 - INFO - torch.cuda.max_memory_reserved() : 1.875
2025-10-11 22:04:14,071 - INFO - !!!采用策略后的几个epoch 平均时间:2.6440690457820892
2025-10-11 22:04:14,071 - INFO - 



